GeneratedTests/Random_7/Random_7_3.tsp
NAME: Random_7_3
TYPE: TSP
DIMENSION: 7
EDGE_WEIGHT_TYPE: EUC_2D
NODE_COORD_SECTION
1 6.6653857 0.25855315
2 2.0058227 20.681805
3 10.325543 7.074523
4 16.293648 15.261342
5 16.617777 5.544676
6 17.284739 5.609872
7 14.9637575 19.512684
EOF
