GeneratedTests/Random_7/Random_7_3.txt
NAME: Random_7_3
TYPE: TSP
DIMENSION: 7
EDGE_WEIGHT_TYPE: EUC_2D
NODE_COORD_SECTION
1 8.3983135 14.179077
2 11.288685 9.81342
3 13.2377205 14.078269
4 2.409146 8.355859
5 16.833727 13.41223
6 15.230547 2.395917
7 10.157452 9.997386
EOF
